NO. OF UNIQUE CENTERS 
20 
---------------B--------------- 
CENTER 
-7.905479700709239e-01 -2.371606115693000e+00 -1.502010907518938e+00  
SYMBOLS 
  5 
S 	 7 
	 1 	 2.788000000000000e+03  	 1.288000000000000e-03  
	 2 	 4.190000000000000e+02  	 9.835000000000000e-03  
	 3 	 9.647000000000000e+01  	 4.764800000000000e-02  
	 4 	 2.807000000000000e+01  	 1.600690000000000e-01  
	 5 	 9.375999999999999e+00  	 3.628940000000000e-01  
	 6 	 3.406000000000000e+00  	 4.335820000000000e-01  
	 7 	 1.306000000000000e+00  	 1.400820000000000e-01  
S 	 2 
	 1 	 3.406000000000000e+00  	 -1.793300000000000e-01  
	 2 	 3.245000000000000e-01  	 1.062594000000000e+00  
S 	 1 
	 1 	 1.022000000000000e-01  	 1.000000000000000e+00  
P 	 4 
	 1 	 1.134000000000000e+01  	 1.798800000000000e-02  
	 2 	 2.436000000000000e+00  	 1.103430000000000e-01  
	 3 	 6.836000000000000e-01  	 3.830720000000000e-01  
	 4 	 2.134000000000000e-01  	 6.478950000000000e-01  
P 	 1 
	 1 	 7.011000000000001e-02  	 1.000000000000000e+00  
---------------B--------------- 
CENTER 
-7.905479700709239e-01 -2.371606115693000e+00 -7.904723810313799e-02  
SYMBOLS 
  5 
S 	 7 
	 1 	 2.788000000000000e+03  	 1.288000000000000e-03  
	 2 	 4.190000000000000e+02  	 9.835000000000000e-03  
	 3 	 9.647000000000000e+01  	 4.764800000000000e-02  
	 4 	 2.807000000000000e+01  	 1.600690000000000e-01  
	 5 	 9.375999999999999e+00  	 3.628940000000000e-01  
	 6 	 3.406000000000000e+00  	 4.335820000000000e-01  
	 7 	 1.306000000000000e+00  	 1.400820000000000e-01  
S 	 2 
	 1 	 3.406000000000000e+00  	 -1.793300000000000e-01  
	 2 	 3.245000000000000e-01  	 1.062594000000000e+00  
S 	 1 
	 1 	 1.022000000000000e-01  	 1.000000000000000e+00  
P 	 4 
	 1 	 1.134000000000000e+01  	 1.798800000000000e-02  
	 2 	 2.436000000000000e+00  	 1.103430000000000e-01  
	 3 	 6.836000000000000e-01  	 3.830720000000000e-01  
	 4 	 2.134000000000000e-01  	 6.478950000000000e-01  
P 	 1 
	 1 	 7.011000000000001e-02  	 1.000000000000000e+00  
---------------B--------------- 
CENTER 
-2.371606115693000e+00 -7.905479700709239e-01 -2.450653353796138e+00  
SYMBOLS 
  5 
S 	 7 
	 1 	 2.788000000000000e+03  	 1.288000000000000e-03  
	 2 	 4.190000000000000e+02  	 9.835000000000000e-03  
	 3 	 9.647000000000000e+01  	 4.764800000000000e-02  
	 4 	 2.807000000000000e+01  	 1.600690000000000e-01  
	 5 	 9.375999999999999e+00  	 3.628940000000000e-01  
	 6 	 3.406000000000000e+00  	 4.335820000000000e-01  
	 7 	 1.306000000000000e+00  	 1.400820000000000e-01  
S 	 2 
	 1 	 3.406000000000000e+00  	 -1.793300000000000e-01  
	 2 	 3.245000000000000e-01  	 1.062594000000000e+00  
S 	 1 
	 1 	 1.022000000000000e-01  	 1.000000000000000e+00  
P 	 4 
	 1 	 1.134000000000000e+01  	 1.798800000000000e-02  
	 2 	 2.436000000000000e+00  	 1.103430000000000e-01  
	 3 	 6.836000000000000e-01  	 3.830720000000000e-01  
	 4 	 2.134000000000000e-01  	 6.478950000000000e-01  
P 	 1 
	 1 	 7.011000000000001e-02  	 1.000000000000000e+00  
---------------B--------------- 
CENTER 
-2.371606115693000e+00 -7.905479700709239e-01 8.695952081740620e-01  
SYMBOLS 
  5 
S 	 7 
	 1 	 2.788000000000000e+03  	 1.288000000000000e-03  
	 2 	 4.190000000000000e+02  	 9.835000000000000e-03  
	 3 	 9.647000000000000e+01  	 4.764800000000000e-02  
	 4 	 2.807000000000000e+01  	 1.600690000000000e-01  
	 5 	 9.375999999999999e+00  	 3.628940000000000e-01  
	 6 	 3.406000000000000e+00  	 4.335820000000000e-01  
	 7 	 1.306000000000000e+00  	 1.400820000000000e-01  
S 	 2 
	 1 	 3.406000000000000e+00  	 -1.793300000000000e-01  
	 2 	 3.245000000000000e-01  	 1.062594000000000e+00  
S 	 1 
	 1 	 1.022000000000000e-01  	 1.000000000000000e+00  
P 	 4 
	 1 	 1.134000000000000e+01  	 1.798800000000000e-02  
	 2 	 2.436000000000000e+00  	 1.103430000000000e-01  
	 3 	 6.836000000000000e-01  	 3.830720000000000e-01  
	 4 	 2.134000000000000e-01  	 6.478950000000000e-01  
P 	 1 
	 1 	 7.011000000000001e-02  	 1.000000000000000e+00  
---------------B--------------- 
CENTER 
-2.371606115693000e+00 -7.905479700709239e-01 2.292558877589862e+00  
SYMBOLS 
  5 
S 	 7 
	 1 	 2.788000000000000e+03  	 1.288000000000000e-03  
	 2 	 4.190000000000000e+02  	 9.835000000000000e-03  
	 3 	 9.647000000000000e+01  	 4.764800000000000e-02  
	 4 	 2.807000000000000e+01  	 1.600690000000000e-01  
	 5 	 9.375999999999999e+00  	 3.628940000000000e-01  
	 6 	 3.406000000000000e+00  	 4.335820000000000e-01  
	 7 	 1.306000000000000e+00  	 1.400820000000000e-01  
S 	 2 
	 1 	 3.406000000000000e+00  	 -1.793300000000000e-01  
	 2 	 3.245000000000000e-01  	 1.062594000000000e+00  
S 	 1 
	 1 	 1.022000000000000e-01  	 1.000000000000000e+00  
P 	 4 
	 1 	 1.134000000000000e+01  	 1.798800000000000e-02  
	 2 	 2.436000000000000e+00  	 1.103430000000000e-01  
	 3 	 6.836000000000000e-01  	 3.830720000000000e-01  
	 4 	 2.134000000000000e-01  	 6.478950000000000e-01  
P 	 1 
	 1 	 7.011000000000001e-02  	 1.000000000000000e+00  
---------------N--------------- 
CENTER 
-3.952683158574962e+00 7.905290728110379e-01 -1.976332130657538e+00  
SYMBOLS 
  5 
S 	 7 
	 1 	 5.909000000000000e+03  	 1.190000000000000e-03  
	 2 	 8.875000000000000e+02  	 9.098999999999999e-03  
	 3 	 2.047000000000000e+02  	 4.414500000000000e-02  
	 4 	 5.984000000000000e+01  	 1.504640000000000e-01  
	 5 	 2.000000000000000e+01  	 3.567410000000000e-01  
	 6 	 7.193000000000000e+00  	 4.465330000000000e-01  
	 7 	 2.686000000000000e+00  	 1.456030000000000e-01  
S 	 2 
	 1 	 7.193000000000000e+00  	 -1.604050000000000e-01  
	 2 	 7.000000000000000e-01  	 1.058215000000000e+00  
S 	 1 
	 1 	 2.133000000000000e-01  	 1.000000000000000e+00  
P 	 4 
	 1 	 2.679000000000000e+01  	 1.825400000000000e-02  
	 2 	 5.956000000000000e+00  	 1.164610000000000e-01  
	 3 	 1.707000000000000e+00  	 3.901780000000000e-01  
	 4 	 5.314000000000000e-01  	 6.371019999999999e-01  
P 	 1 
	 1 	 1.654000000000000e-01  	 1.000000000000000e+00  
---------------B--------------- 
CENTER 
-7.905479700709239e-01 2.371606115693000e+00 -1.502010907518938e+00  
SYMBOLS 
  5 
S 	 7 
	 1 	 2.788000000000000e+03  	 1.288000000000000e-03  
	 2 	 4.190000000000000e+02  	 9.835000000000000e-03  
	 3 	 9.647000000000000e+01  	 4.764800000000000e-02  
	 4 	 2.807000000000000e+01  	 1.600690000000000e-01  
	 5 	 9.375999999999999e+00  	 3.628940000000000e-01  
	 6 	 3.406000000000000e+00  	 4.335820000000000e-01  
	 7 	 1.306000000000000e+00  	 1.400820000000000e-01  
S 	 2 
	 1 	 3.406000000000000e+00  	 -1.793300000000000e-01  
	 2 	 3.245000000000000e-01  	 1.062594000000000e+00  
S 	 1 
	 1 	 1.022000000000000e-01  	 1.000000000000000e+00  
P 	 4 
	 1 	 1.134000000000000e+01  	 1.798800000000000e-02  
	 2 	 2.436000000000000e+00  	 1.103430000000000e-01  
	 3 	 6.836000000000000e-01  	 3.830720000000000e-01  
	 4 	 2.134000000000000e-01  	 6.478950000000000e-01  
P 	 1 
	 1 	 7.011000000000001e-02  	 1.000000000000000e+00  
---------------B--------------- 
CENTER 
-7.905479700709239e-01 2.371606115693000e+00 -7.904723810313799e-02  
SYMBOLS 
  5 
S 	 7 
	 1 	 2.788000000000000e+03  	 1.288000000000000e-03  
	 2 	 4.190000000000000e+02  	 9.835000000000000e-03  
	 3 	 9.647000000000000e+01  	 4.764800000000000e-02  
	 4 	 2.807000000000000e+01  	 1.600690000000000e-01  
	 5 	 9.375999999999999e+00  	 3.628940000000000e-01  
	 6 	 3.406000000000000e+00  	 4.335820000000000e-01  
	 7 	 1.306000000000000e+00  	 1.400820000000000e-01  
S 	 2 
	 1 	 3.406000000000000e+00  	 -1.793300000000000e-01  
	 2 	 3.245000000000000e-01  	 1.062594000000000e+00  
S 	 1 
	 1 	 1.022000000000000e-01  	 1.000000000000000e+00  
P 	 4 
	 1 	 1.134000000000000e+01  	 1.798800000000000e-02  
	 2 	 2.436000000000000e+00  	 1.103430000000000e-01  
	 3 	 6.836000000000000e-01  	 3.830720000000000e-01  
	 4 	 2.134000000000000e-01  	 6.478950000000000e-01  
P 	 1 
	 1 	 7.011000000000001e-02  	 1.000000000000000e+00  
---------------N--------------- 
CENTER 
-3.952683158574962e+00 7.905290728110379e-01 3.952739850354620e-01  
SYMBOLS 
  5 
S 	 7 
	 1 	 5.909000000000000e+03  	 1.190000000000000e-03  
	 2 	 8.875000000000000e+02  	 9.098999999999999e-03  
	 3 	 2.047000000000000e+02  	 4.414500000000000e-02  
	 4 	 5.984000000000000e+01  	 1.504640000000000e-01  
	 5 	 2.000000000000000e+01  	 3.567410000000000e-01  
	 6 	 7.193000000000000e+00  	 4.465330000000000e-01  
	 7 	 2.686000000000000e+00  	 1.456030000000000e-01  
S 	 2 
	 1 	 7.193000000000000e+00  	 -1.604050000000000e-01  
	 2 	 7.000000000000000e-01  	 1.058215000000000e+00  
S 	 1 
	 1 	 2.133000000000000e-01  	 1.000000000000000e+00  
P 	 4 
	 1 	 2.679000000000000e+01  	 1.825400000000000e-02  
	 2 	 5.956000000000000e+00  	 1.164610000000000e-01  
	 3 	 1.707000000000000e+00  	 3.901780000000000e-01  
	 4 	 5.314000000000000e-01  	 6.371019999999999e-01  
P 	 1 
	 1 	 1.654000000000000e-01  	 1.000000000000000e+00  
---------------N--------------- 
CENTER 
-3.952683158574962e+00 7.905290728110379e-01 2.766880100728462e+00  
SYMBOLS 
  5 
S 	 7 
	 1 	 5.909000000000000e+03  	 1.190000000000000e-03  
	 2 	 8.875000000000000e+02  	 9.098999999999999e-03  
	 3 	 2.047000000000000e+02  	 4.414500000000000e-02  
	 4 	 5.984000000000000e+01  	 1.504640000000000e-01  
	 5 	 2.000000000000000e+01  	 3.567410000000000e-01  
	 6 	 7.193000000000000e+00  	 4.465330000000000e-01  
	 7 	 2.686000000000000e+00  	 1.456030000000000e-01  
S 	 2 
	 1 	 7.193000000000000e+00  	 -1.604050000000000e-01  
	 2 	 7.000000000000000e-01  	 1.058215000000000e+00  
S 	 1 
	 1 	 2.133000000000000e-01  	 1.000000000000000e+00  
P 	 4 
	 1 	 2.679000000000000e+01  	 1.825400000000000e-02  
	 2 	 5.956000000000000e+00  	 1.164610000000000e-01  
	 3 	 1.707000000000000e+00  	 3.901780000000000e-01  
	 4 	 5.314000000000000e-01  	 6.371019999999999e-01  
P 	 1 
	 1 	 1.654000000000000e-01  	 1.000000000000000e+00  
---------------N--------------- 
CENTER 
7.905290728110379e-01 -3.952683158574962e+00 -1.976332130657538e+00  
SYMBOLS 
  5 
S 	 7 
	 1 	 5.909000000000000e+03  	 1.190000000000000e-03  
	 2 	 8.875000000000000e+02  	 9.098999999999999e-03  
	 3 	 2.047000000000000e+02  	 4.414500000000000e-02  
	 4 	 5.984000000000000e+01  	 1.504640000000000e-01  
	 5 	 2.000000000000000e+01  	 3.567410000000000e-01  
	 6 	 7.193000000000000e+00  	 4.465330000000000e-01  
	 7 	 2.686000000000000e+00  	 1.456030000000000e-01  
S 	 2 
	 1 	 7.193000000000000e+00  	 -1.604050000000000e-01  
	 2 	 7.000000000000000e-01  	 1.058215000000000e+00  
S 	 1 
	 1 	 2.133000000000000e-01  	 1.000000000000000e+00  
P 	 4 
	 1 	 2.679000000000000e+01  	 1.825400000000000e-02  
	 2 	 5.956000000000000e+00  	 1.164610000000000e-01  
	 3 	 1.707000000000000e+00  	 3.901780000000000e-01  
	 4 	 5.314000000000000e-01  	 6.371019999999999e-01  
P 	 1 
	 1 	 1.654000000000000e-01  	 1.000000000000000e+00  
---------------B--------------- 
CENTER 
2.371606115693000e+00 -7.905479700709239e-01 -2.450653353796138e+00  
SYMBOLS 
  5 
S 	 7 
	 1 	 2.788000000000000e+03  	 1.288000000000000e-03  
	 2 	 4.190000000000000e+02  	 9.835000000000000e-03  
	 3 	 9.647000000000000e+01  	 4.764800000000000e-02  
	 4 	 2.807000000000000e+01  	 1.600690000000000e-01  
	 5 	 9.375999999999999e+00  	 3.628940000000000e-01  
	 6 	 3.406000000000000e+00  	 4.335820000000000e-01  
	 7 	 1.306000000000000e+00  	 1.400820000000000e-01  
S 	 2 
	 1 	 3.406000000000000e+00  	 -1.793300000000000e-01  
	 2 	 3.245000000000000e-01  	 1.062594000000000e+00  
S 	 1 
	 1 	 1.022000000000000e-01  	 1.000000000000000e+00  
P 	 4 
	 1 	 1.134000000000000e+01  	 1.798800000000000e-02  
	 2 	 2.436000000000000e+00  	 1.103430000000000e-01  
	 3 	 6.836000000000000e-01  	 3.830720000000000e-01  
	 4 	 2.134000000000000e-01  	 6.478950000000000e-01  
P 	 1 
	 1 	 7.011000000000001e-02  	 1.000000000000000e+00  
---------------N--------------- 
CENTER 
7.905290728110379e-01 -3.952683158574962e+00 3.952739850354620e-01  
SYMBOLS 
  5 
S 	 7 
	 1 	 5.909000000000000e+03  	 1.190000000000000e-03  
	 2 	 8.875000000000000e+02  	 9.098999999999999e-03  
	 3 	 2.047000000000000e+02  	 4.414500000000000e-02  
	 4 	 5.984000000000000e+01  	 1.504640000000000e-01  
	 5 	 2.000000000000000e+01  	 3.567410000000000e-01  
	 6 	 7.193000000000000e+00  	 4.465330000000000e-01  
	 7 	 2.686000000000000e+00  	 1.456030000000000e-01  
S 	 2 
	 1 	 7.193000000000000e+00  	 -1.604050000000000e-01  
	 2 	 7.000000000000000e-01  	 1.058215000000000e+00  
S 	 1 
	 1 	 2.133000000000000e-01  	 1.000000000000000e+00  
P 	 4 
	 1 	 2.679000000000000e+01  	 1.825400000000000e-02  
	 2 	 5.956000000000000e+00  	 1.164610000000000e-01  
	 3 	 1.707000000000000e+00  	 3.901780000000000e-01  
	 4 	 5.314000000000000e-01  	 6.371019999999999e-01  
P 	 1 
	 1 	 1.654000000000000e-01  	 1.000000000000000e+00  
---------------N--------------- 
CENTER 
7.905290728110379e-01 -3.952683158574962e+00 2.766880100728462e+00  
SYMBOLS 
  5 
S 	 7 
	 1 	 5.909000000000000e+03  	 1.190000000000000e-03  
	 2 	 8.875000000000000e+02  	 9.098999999999999e-03  
	 3 	 2.047000000000000e+02  	 4.414500000000000e-02  
	 4 	 5.984000000000000e+01  	 1.504640000000000e-01  
	 5 	 2.000000000000000e+01  	 3.567410000000000e-01  
	 6 	 7.193000000000000e+00  	 4.465330000000000e-01  
	 7 	 2.686000000000000e+00  	 1.456030000000000e-01  
S 	 2 
	 1 	 7.193000000000000e+00  	 -1.604050000000000e-01  
	 2 	 7.000000000000000e-01  	 1.058215000000000e+00  
S 	 1 
	 1 	 2.133000000000000e-01  	 1.000000000000000e+00  
P 	 4 
	 1 	 2.679000000000000e+01  	 1.825400000000000e-02  
	 2 	 5.956000000000000e+00  	 1.164610000000000e-01  
	 3 	 1.707000000000000e+00  	 3.901780000000000e-01  
	 4 	 5.314000000000000e-01  	 6.371019999999999e-01  
P 	 1 
	 1 	 1.654000000000000e-01  	 1.000000000000000e+00  
---------------B--------------- 
CENTER 
2.371606115693000e+00 -7.905479700709239e-01 8.695952081740620e-01  
SYMBOLS 
  5 
S 	 7 
	 1 	 2.788000000000000e+03  	 1.288000000000000e-03  
	 2 	 4.190000000000000e+02  	 9.835000000000000e-03  
	 3 	 9.647000000000000e+01  	 4.764800000000000e-02  
	 4 	 2.807000000000000e+01  	 1.600690000000000e-01  
	 5 	 9.375999999999999e+00  	 3.628940000000000e-01  
	 6 	 3.406000000000000e+00  	 4.335820000000000e-01  
	 7 	 1.306000000000000e+00  	 1.400820000000000e-01  
S 	 2 
	 1 	 3.406000000000000e+00  	 -1.793300000000000e-01  
	 2 	 3.245000000000000e-01  	 1.062594000000000e+00  
S 	 1 
	 1 	 1.022000000000000e-01  	 1.000000000000000e+00  
P 	 4 
	 1 	 1.134000000000000e+01  	 1.798800000000000e-02  
	 2 	 2.436000000000000e+00  	 1.103430000000000e-01  
	 3 	 6.836000000000000e-01  	 3.830720000000000e-01  
	 4 	 2.134000000000000e-01  	 6.478950000000000e-01  
P 	 1 
	 1 	 7.011000000000001e-02  	 1.000000000000000e+00  
---------------B--------------- 
CENTER 
2.371606115693000e+00 -7.905479700709239e-01 2.292558877589862e+00  
SYMBOLS 
  5 
S 	 7 
	 1 	 2.788000000000000e+03  	 1.288000000000000e-03  
	 2 	 4.190000000000000e+02  	 9.835000000000000e-03  
	 3 	 9.647000000000000e+01  	 4.764800000000000e-02  
	 4 	 2.807000000000000e+01  	 1.600690000000000e-01  
	 5 	 9.375999999999999e+00  	 3.628940000000000e-01  
	 6 	 3.406000000000000e+00  	 4.335820000000000e-01  
	 7 	 1.306000000000000e+00  	 1.400820000000000e-01  
S 	 2 
	 1 	 3.406000000000000e+00  	 -1.793300000000000e-01  
	 2 	 3.245000000000000e-01  	 1.062594000000000e+00  
S 	 1 
	 1 	 1.022000000000000e-01  	 1.000000000000000e+00  
P 	 4 
	 1 	 1.134000000000000e+01  	 1.798800000000000e-02  
	 2 	 2.436000000000000e+00  	 1.103430000000000e-01  
	 3 	 6.836000000000000e-01  	 3.830720000000000e-01  
	 4 	 2.134000000000000e-01  	 6.478950000000000e-01  
P 	 1 
	 1 	 7.011000000000001e-02  	 1.000000000000000e+00  
---------------N--------------- 
CENTER 
7.905290728110379e-01 7.905290728110379e-01 -4.347938246350537e+00  
SYMBOLS 
  5 
S 	 7 
	 1 	 5.909000000000000e+03  	 1.190000000000000e-03  
	 2 	 8.875000000000000e+02  	 9.098999999999999e-03  
	 3 	 2.047000000000000e+02  	 4.414500000000000e-02  
	 4 	 5.984000000000000e+01  	 1.504640000000000e-01  
	 5 	 2.000000000000000e+01  	 3.567410000000000e-01  
	 6 	 7.193000000000000e+00  	 4.465330000000000e-01  
	 7 	 2.686000000000000e+00  	 1.456030000000000e-01  
S 	 2 
	 1 	 7.193000000000000e+00  	 -1.604050000000000e-01  
	 2 	 7.000000000000000e-01  	 1.058215000000000e+00  
S 	 1 
	 1 	 2.133000000000000e-01  	 1.000000000000000e+00  
P 	 4 
	 1 	 2.679000000000000e+01  	 1.825400000000000e-02  
	 2 	 5.956000000000000e+00  	 1.164610000000000e-01  
	 3 	 1.707000000000000e+00  	 3.901780000000000e-01  
	 4 	 5.314000000000000e-01  	 6.371019999999999e-01  
P 	 1 
	 1 	 1.654000000000000e-01  	 1.000000000000000e+00  
---------------N--------------- 
CENTER 
7.905290728110379e-01 7.905290728110379e-01 -1.976332130657538e+00  
SYMBOLS 
  5 
S 	 7 
	 1 	 5.909000000000000e+03  	 1.190000000000000e-03  
	 2 	 8.875000000000000e+02  	 9.098999999999999e-03  
	 3 	 2.047000000000000e+02  	 4.414500000000000e-02  
	 4 	 5.984000000000000e+01  	 1.504640000000000e-01  
	 5 	 2.000000000000000e+01  	 3.567410000000000e-01  
	 6 	 7.193000000000000e+00  	 4.465330000000000e-01  
	 7 	 2.686000000000000e+00  	 1.456030000000000e-01  
S 	 2 
	 1 	 7.193000000000000e+00  	 -1.604050000000000e-01  
	 2 	 7.000000000000000e-01  	 1.058215000000000e+00  
S 	 1 
	 1 	 2.133000000000000e-01  	 1.000000000000000e+00  
P 	 4 
	 1 	 2.679000000000000e+01  	 1.825400000000000e-02  
	 2 	 5.956000000000000e+00  	 1.164610000000000e-01  
	 3 	 1.707000000000000e+00  	 3.901780000000000e-01  
	 4 	 5.314000000000000e-01  	 6.371019999999999e-01  
P 	 1 
	 1 	 1.654000000000000e-01  	 1.000000000000000e+00  
---------------N--------------- 
CENTER 
7.905290728110379e-01 7.905290728110379e-01 3.952739850354620e-01  
SYMBOLS 
  5 
S 	 7 
	 1 	 5.909000000000000e+03  	 1.190000000000000e-03  
	 2 	 8.875000000000000e+02  	 9.098999999999999e-03  
	 3 	 2.047000000000000e+02  	 4.414500000000000e-02  
	 4 	 5.984000000000000e+01  	 1.504640000000000e-01  
	 5 	 2.000000000000000e+01  	 3.567410000000000e-01  
	 6 	 7.193000000000000e+00  	 4.465330000000000e-01  
	 7 	 2.686000000000000e+00  	 1.456030000000000e-01  
S 	 2 
	 1 	 7.193000000000000e+00  	 -1.604050000000000e-01  
	 2 	 7.000000000000000e-01  	 1.058215000000000e+00  
S 	 1 
	 1 	 2.133000000000000e-01  	 1.000000000000000e+00  
P 	 4 
	 1 	 2.679000000000000e+01  	 1.825400000000000e-02  
	 2 	 5.956000000000000e+00  	 1.164610000000000e-01  
	 3 	 1.707000000000000e+00  	 3.901780000000000e-01  
	 4 	 5.314000000000000e-01  	 6.371019999999999e-01  
P 	 1 
	 1 	 1.654000000000000e-01  	 1.000000000000000e+00  
---------------N--------------- 
CENTER 
7.905290728110379e-01 7.905290728110379e-01 2.766880100728462e+00  
SYMBOLS 
  5 
S 	 7 
	 1 	 5.909000000000000e+03  	 1.190000000000000e-03  
	 2 	 8.875000000000000e+02  	 9.098999999999999e-03  
	 3 	 2.047000000000000e+02  	 4.414500000000000e-02  
	 4 	 5.984000000000000e+01  	 1.504640000000000e-01  
	 5 	 2.000000000000000e+01  	 3.567410000000000e-01  
	 6 	 7.193000000000000e+00  	 4.465330000000000e-01  
	 7 	 2.686000000000000e+00  	 1.456030000000000e-01  
S 	 2 
	 1 	 7.193000000000000e+00  	 -1.604050000000000e-01  
	 2 	 7.000000000000000e-01  	 1.058215000000000e+00  
S 	 1 
	 1 	 2.133000000000000e-01  	 1.000000000000000e+00  
P 	 4 
	 1 	 2.679000000000000e+01  	 1.825400000000000e-02  
	 2 	 5.956000000000000e+00  	 1.164610000000000e-01  
	 3 	 1.707000000000000e+00  	 3.901780000000000e-01  
	 4 	 5.314000000000000e-01  	 6.371019999999999e-01  
P 	 1 
	 1 	 1.654000000000000e-01  	 1.000000000000000e+00  
