    1 0
 s    7 1.00
         2788.000000             0.001288
          419.000000             0.009835
           96.470000             0.047648
           28.070000             0.160069
            9.376000             0.362894
            3.406000             0.433582
            1.306000             0.140082
 s    2 1.00
            3.406000            -0.179330
            0.324500             1.062594
 s    1 1.00
            0.102200             1.000000
 p    4 1.00
           11.340000             0.017988
            2.436000             0.110343
            0.683600             0.383072
            0.213400             0.647895
 p    1 1.00
            0.070110             1.000000

    2 0
 s    7 1.00
         2788.000000             0.001288
          419.000000             0.009835
           96.470000             0.047648
           28.070000             0.160069
            9.376000             0.362894
            3.406000             0.433582
            1.306000             0.140082
 s    2 1.00
            3.406000            -0.179330
            0.324500             1.062594
 s    1 1.00
            0.102200             1.000000
 p    4 1.00
           11.340000             0.017988
            2.436000             0.110343
            0.683600             0.383072
            0.213400             0.647895
 p    1 1.00
            0.070110             1.000000

    3 0
 s    7 1.00
         2788.000000             0.001288
          419.000000             0.009835
           96.470000             0.047648
           28.070000             0.160069
            9.376000             0.362894
            3.406000             0.433582
            1.306000             0.140082
 s    2 1.00
            3.406000            -0.179330
            0.324500             1.062594
 s    1 1.00
            0.102200             1.000000
 p    4 1.00
           11.340000             0.017988
            2.436000             0.110343
            0.683600             0.383072
            0.213400             0.647895
 p    1 1.00
            0.070110             1.000000

    4 0
 s    7 1.00
         2788.000000             0.001288
          419.000000             0.009835
           96.470000             0.047648
           28.070000             0.160069
            9.376000             0.362894
            3.406000             0.433582
            1.306000             0.140082
 s    2 1.00
            3.406000            -0.179330
            0.324500             1.062594
 s    1 1.00
            0.102200             1.000000
 p    4 1.00
           11.340000             0.017988
            2.436000             0.110343
            0.683600             0.383072
            0.213400             0.647895
 p    1 1.00
            0.070110             1.000000

    5 0
 s    7 1.00
         2788.000000             0.001288
          419.000000             0.009835
           96.470000             0.047648
           28.070000             0.160069
            9.376000             0.362894
            3.406000             0.433582
            1.306000             0.140082
 s    2 1.00
            3.406000            -0.179330
            0.324500             1.062594
 s    1 1.00
            0.102200             1.000000
 p    4 1.00
           11.340000             0.017988
            2.436000             0.110343
            0.683600             0.383072
            0.213400             0.647895
 p    1 1.00
            0.070110             1.000000

    6 0
 s    7 1.00
         5909.000000             0.001190
          887.500000             0.009099
          204.700000             0.044145
           59.840000             0.150464
           20.000000             0.356741
            7.193000             0.446533
            2.686000             0.145603
 s    2 1.00
            7.193000            -0.160405
            0.700000             1.058215
 s    1 1.00
            0.213300             1.000000
 p    4 1.00
           26.790000             0.018254
            5.956000             0.116461
            1.707000             0.390178
            0.531400             0.637102
 p    1 1.00
            0.165400             1.000000

    7 0
 s    7 1.00
         2788.000000             0.001288
          419.000000             0.009835
           96.470000             0.047648
           28.070000             0.160069
            9.376000             0.362894
            3.406000             0.433582
            1.306000             0.140082
 s    2 1.00
            3.406000            -0.179330
            0.324500             1.062594
 s    1 1.00
            0.102200             1.000000
 p    4 1.00
           11.340000             0.017988
            2.436000             0.110343
            0.683600             0.383072
            0.213400             0.647895
 p    1 1.00
            0.070110             1.000000

    8 0
 s    7 1.00
         2788.000000             0.001288
          419.000000             0.009835
           96.470000             0.047648
           28.070000             0.160069
            9.376000             0.362894
            3.406000             0.433582
            1.306000             0.140082
 s    2 1.00
            3.406000            -0.179330
            0.324500             1.062594
 s    1 1.00
            0.102200             1.000000
 p    4 1.00
           11.340000             0.017988
            2.436000             0.110343
            0.683600             0.383072
            0.213400             0.647895
 p    1 1.00
            0.070110             1.000000

    9 0
 s    7 1.00
         5909.000000             0.001190
          887.500000             0.009099
          204.700000             0.044145
           59.840000             0.150464
           20.000000             0.356741
            7.193000             0.446533
            2.686000             0.145603
 s    2 1.00
            7.193000            -0.160405
            0.700000             1.058215
 s    1 1.00
            0.213300             1.000000
 p    4 1.00
           26.790000             0.018254
            5.956000             0.116461
            1.707000             0.390178
            0.531400             0.637102
 p    1 1.00
            0.165400             1.000000

   10 0
 s    7 1.00
         5909.000000             0.001190
          887.500000             0.009099
          204.700000             0.044145
           59.840000             0.150464
           20.000000             0.356741
            7.193000             0.446533
            2.686000             0.145603
 s    2 1.00
            7.193000            -0.160405
            0.700000             1.058215
 s    1 1.00
            0.213300             1.000000
 p    4 1.00
           26.790000             0.018254
            5.956000             0.116461
            1.707000             0.390178
            0.531400             0.637102
 p    1 1.00
            0.165400             1.000000

   11 0
 s    7 1.00
         5909.000000             0.001190
          887.500000             0.009099
          204.700000             0.044145
           59.840000             0.150464
           20.000000             0.356741
            7.193000             0.446533
            2.686000             0.145603
 s    2 1.00
            7.193000            -0.160405
            0.700000             1.058215
 s    1 1.00
            0.213300             1.000000
 p    4 1.00
           26.790000             0.018254
            5.956000             0.116461
            1.707000             0.390178
            0.531400             0.637102
 p    1 1.00
            0.165400             1.000000

   12 0
 s    7 1.00
         2788.000000             0.001288
          419.000000             0.009835
           96.470000             0.047648
           28.070000             0.160069
            9.376000             0.362894
            3.406000             0.433582
            1.306000             0.140082
 s    2 1.00
            3.406000            -0.179330
            0.324500             1.062594
 s    1 1.00
            0.102200             1.000000
 p    4 1.00
           11.340000             0.017988
            2.436000             0.110343
            0.683600             0.383072
            0.213400             0.647895
 p    1 1.00
            0.070110             1.000000

   13 0
 s    7 1.00
         5909.000000             0.001190
          887.500000             0.009099
          204.700000             0.044145
           59.840000             0.150464
           20.000000             0.356741
            7.193000             0.446533
            2.686000             0.145603
 s    2 1.00
            7.193000            -0.160405
            0.700000             1.058215
 s    1 1.00
            0.213300             1.000000
 p    4 1.00
           26.790000             0.018254
            5.956000             0.116461
            1.707000             0.390178
            0.531400             0.637102
 p    1 1.00
            0.165400             1.000000

   14 0
 s    7 1.00
         5909.000000             0.001190
          887.500000             0.009099
          204.700000             0.044145
           59.840000             0.150464
           20.000000             0.356741
            7.193000             0.446533
            2.686000             0.145603
 s    2 1.00
            7.193000            -0.160405
            0.700000             1.058215
 s    1 1.00
            0.213300             1.000000
 p    4 1.00
           26.790000             0.018254
            5.956000             0.116461
            1.707000             0.390178
            0.531400             0.637102
 p    1 1.00
            0.165400             1.000000

   15 0
 s    7 1.00
         2788.000000             0.001288
          419.000000             0.009835
           96.470000             0.047648
           28.070000             0.160069
            9.376000             0.362894
            3.406000             0.433582
            1.306000             0.140082
 s    2 1.00
            3.406000            -0.179330
            0.324500             1.062594
 s    1 1.00
            0.102200             1.000000
 p    4 1.00
           11.340000             0.017988
            2.436000             0.110343
            0.683600             0.383072
            0.213400             0.647895
 p    1 1.00
            0.070110             1.000000

   16 0
 s    7 1.00
         2788.000000             0.001288
          419.000000             0.009835
           96.470000             0.047648
           28.070000             0.160069
            9.376000             0.362894
            3.406000             0.433582
            1.306000             0.140082
 s    2 1.00
            3.406000            -0.179330
            0.324500             1.062594
 s    1 1.00
            0.102200             1.000000
 p    4 1.00
           11.340000             0.017988
            2.436000             0.110343
            0.683600             0.383072
            0.213400             0.647895
 p    1 1.00
            0.070110             1.000000

   17 0
 s    7 1.00
         5909.000000             0.001190
          887.500000             0.009099
          204.700000             0.044145
           59.840000             0.150464
           20.000000             0.356741
            7.193000             0.446533
            2.686000             0.145603
 s    2 1.00
            7.193000            -0.160405
            0.700000             1.058215
 s    1 1.00
            0.213300             1.000000
 p    4 1.00
           26.790000             0.018254
            5.956000             0.116461
            1.707000             0.390178
            0.531400             0.637102
 p    1 1.00
            0.165400             1.000000

   18 0
 s    7 1.00
         5909.000000             0.001190
          887.500000             0.009099
          204.700000             0.044145
           59.840000             0.150464
           20.000000             0.356741
            7.193000             0.446533
            2.686000             0.145603
 s    2 1.00
            7.193000            -0.160405
            0.700000             1.058215
 s    1 1.00
            0.213300             1.000000
 p    4 1.00
           26.790000             0.018254
            5.956000             0.116461
            1.707000             0.390178
            0.531400             0.637102
 p    1 1.00
            0.165400             1.000000

   19 0
 s    7 1.00
         5909.000000             0.001190
          887.500000             0.009099
          204.700000             0.044145
           59.840000             0.150464
           20.000000             0.356741
            7.193000             0.446533
            2.686000             0.145603
 s    2 1.00
            7.193000            -0.160405
            0.700000             1.058215
 s    1 1.00
            0.213300             1.000000
 p    4 1.00
           26.790000             0.018254
            5.956000             0.116461
            1.707000             0.390178
            0.531400             0.637102
 p    1 1.00
            0.165400             1.000000

   20 0
 s    7 1.00
         5909.000000             0.001190
          887.500000             0.009099
          204.700000             0.044145
           59.840000             0.150464
           20.000000             0.356741
            7.193000             0.446533
            2.686000             0.145603
 s    2 1.00
            7.193000            -0.160405
            0.700000             1.058215
 s    1 1.00
            0.213300             1.000000
 p    4 1.00
           26.790000             0.018254
            5.956000             0.116461
            1.707000             0.390178
            0.531400             0.637102
 p    1 1.00
            0.165400             1.000000

