180 
1 	 -1.579340000000000e+01 
2 	 -1.576080000000000e+01 
3 	 -1.574810000000000e+01 
4 	 -1.573250000000000e+01 
5 	 -1.570830000000000e+01 
6 	 -1.566240000000000e+01 
7 	 -1.564840000000000e+01 
8 	 -1.564710000000000e+01 
9 	 -1.562510000000000e+01 
10 	 -1.562090000000000e+01 
11 	 -8.117500000000000e+00 
12 	 -8.112900000000000e+00 
13 	 -8.081099999999999e+00 
14 	 -8.058400000000001e+00 
15 	 -7.857400000000000e+00 
16 	 -7.853800000000000e+00 
17 	 -7.819600000000000e+00 
18 	 -7.788400000000000e+00 
19 	 -7.743300000000000e+00 
20 	 -7.681700000000000e+00 
21 	 -1.854700000000000e+00 
22 	 -1.768000000000000e+00 
23 	 -1.688300000000000e+00 
24 	 -1.660000000000000e+00 
25 	 -1.499800000000000e+00 
26 	 -1.465400000000000e+00 
27 	 -1.376600000000000e+00 
28 	 -1.261100000000000e+00 
29 	 -1.206400000000000e+00 
30 	 -1.068600000000000e+00 
31 	 -1.035900000000000e+00 
32 	 -1.010200000000000e+00 
33 	 -9.807000000000000e-01 
34 	 -9.666000000000000e-01 
35 	 -9.243000000000000e-01 
36 	 -9.125000000000000e-01 
37 	 -8.908000000000000e-01 
38 	 -8.601000000000000e-01 
39 	 -8.354000000000000e-01 
40 	 -8.203000000000000e-01 
41 	 -7.855000000000000e-01 
42 	 -7.364000000000001e-01 
43 	 -7.077000000000000e-01 
44 	 -6.702000000000000e-01 
45 	 -6.546999999999999e-01 
46 	 -6.510000000000000e-01 
47 	 -6.228000000000000e-01 
48 	 -6.004000000000000e-01 
49 	 -5.582000000000000e-01 
50 	 -5.288000000000000e-01 
51 	 -5.254000000000000e-01 
52 	 -4.874000000000000e-01 
53 	 -4.688000000000000e-01 
54 	 -4.489000000000000e-01 
55 	 -4.427000000000000e-01 
56 	 -4.061000000000000e-01 
57 	 -3.845000000000000e-01 
58 	 -3.733000000000000e-01 
59 	 -3.219000000000000e-01 
60 	 -3.145000000000000e-01 
61 	 -5.660000000000000e-02 
62 	 -3.300000000000000e-02 
63 	 -1.880000000000000e-02 
64 	 1.990000000000000e-02 
65 	 7.770000000000001e-02 
66 	 9.050000000000000e-02 
67 	 1.066000000000000e-01 
68 	 1.167000000000000e-01 
69 	 1.306000000000000e-01 
70 	 1.351000000000000e-01 
71 	 1.406000000000000e-01 
72 	 1.468000000000000e-01 
73 	 1.713000000000000e-01 
74 	 1.854000000000000e-01 
75 	 1.888000000000000e-01 
76 	 1.952000000000000e-01 
77 	 2.055000000000000e-01 
78 	 2.083000000000000e-01 
79 	 2.136000000000000e-01 
80 	 2.216000000000000e-01 
81 	 2.234000000000000e-01 
82 	 2.384000000000000e-01 
83 	 2.457000000000000e-01 
84 	 2.544000000000000e-01 
85 	 2.588000000000000e-01 
86 	 2.697000000000000e-01 
87 	 2.757000000000000e-01 
88 	 2.818000000000000e-01 
89 	 2.926000000000000e-01 
90 	 2.970000000000000e-01 
91 	 3.060000000000000e-01 
92 	 3.195000000000000e-01 
93 	 3.256000000000000e-01 
94 	 3.308000000000000e-01 
95 	 3.376000000000000e-01 
96 	 3.411000000000000e-01 
97 	 3.478000000000000e-01 
98 	 3.586000000000000e-01 
99 	 3.714000000000000e-01 
100 	 3.803000000000000e-01 
101 	 3.859000000000000e-01 
102 	 4.100000000000000e-01 
103 	 4.165000000000000e-01 
104 	 4.273000000000000e-01 
105 	 4.438000000000000e-01 
106 	 4.524000000000000e-01 
107 	 4.913000000000000e-01 
108 	 5.133000000000000e-01 
109 	 5.461000000000000e-01 
110 	 5.639999999999999e-01 
111 	 5.786000000000000e-01 
112 	 5.951000000000000e-01 
113 	 6.175000000000000e-01 
114 	 6.297000000000000e-01 
115 	 6.485000000000000e-01 
116 	 6.712000000000000e-01 
117 	 7.018000000000000e-01 
118 	 7.045000000000000e-01 
119 	 7.147000000000000e-01 
120 	 7.363000000000000e-01 
121 	 7.607000000000000e-01 
122 	 7.734000000000000e-01 
123 	 7.859000000000000e-01 
124 	 7.944000000000000e-01 
125 	 7.983000000000000e-01 
126 	 8.260999999999999e-01 
127 	 8.427000000000000e-01 
128 	 8.447000000000000e-01 
129 	 8.649000000000000e-01 
130 	 8.773000000000000e-01 
131 	 8.947000000000001e-01 
132 	 9.045000000000000e-01 
133 	 9.313000000000000e-01 
134 	 9.399000000000000e-01 
135 	 9.484000000000000e-01 
136 	 9.598000000000000e-01 
137 	 9.774000000000000e-01 
138 	 9.826000000000000e-01 
139 	 9.929000000000000e-01 
140 	 9.978000000000000e-01 
141 	 1.020200000000000e+00 
142 	 1.024400000000000e+00 
143 	 1.040200000000000e+00 
144 	 1.052000000000000e+00 
145 	 1.063900000000000e+00 
146 	 1.073800000000000e+00 
147 	 1.083200000000000e+00 
148 	 1.098900000000000e+00 
149 	 1.107500000000000e+00 
150 	 1.117700000000000e+00 
151 	 1.138600000000000e+00 
152 	 1.152700000000000e+00 
153 	 1.182200000000000e+00 
154 	 1.239600000000000e+00 
155 	 1.286700000000000e+00 
156 	 1.314500000000000e+00 
157 	 1.322100000000000e+00 
158 	 1.375600000000000e+00 
159 	 1.428700000000000e+00 
160 	 1.445200000000000e+00 
161 	 1.531300000000000e+00 
162 	 1.625700000000000e+00 
163 	 1.686000000000000e+00 
164 	 1.813300000000000e+00 
165 	 1.857400000000000e+00 
166 	 1.897700000000000e+00 
167 	 1.922800000000000e+00 
168 	 1.975700000000000e+00 
169 	 2.006800000000000e+00 
170 	 2.043700000000000e+00 
171 	 2.097500000000000e+00 
172 	 2.142500000000000e+00 
173 	 2.189500000000000e+00 
174 	 2.230800000000000e+00 
175 	 2.440800000000000e+00 
176 	 6.248600000000000e+00 
177 	 6.329000000000000e+00 
178 	 6.780600000000000e+00 
179 	 7.105900000000000e+00 
180 	 0.000000000000000e+00 
