180 
1 	 2.000000000000000e+00 
2 	 2.000000000000000e+00 
3 	 2.000000000000000e+00 
4 	 2.000000000000000e+00 
5 	 2.000000000000000e+00 
6 	 2.000000000000000e+00 
7 	 2.000000000000000e+00 
8 	 2.000000000000000e+00 
9 	 2.000000000000000e+00 
10 	 2.000000000000000e+00 
11 	 2.000000000000000e+00 
12 	 2.000000000000000e+00 
13 	 2.000000000000000e+00 
14 	 2.000000000000000e+00 
15 	 2.000000000000000e+00 
16 	 2.000000000000000e+00 
17 	 2.000000000000000e+00 
18 	 2.000000000000000e+00 
19 	 2.000000000000000e+00 
20 	 2.000000000000000e+00 
21 	 2.000000000000000e+00 
22 	 2.000000000000000e+00 
23 	 2.000000000000000e+00 
24 	 2.000000000000000e+00 
25 	 2.000000000000000e+00 
26 	 2.000000000000000e+00 
27 	 2.000000000000000e+00 
28 	 2.000000000000000e+00 
29 	 2.000000000000000e+00 
30 	 2.000000000000000e+00 
31 	 2.000000000000000e+00 
32 	 2.000000000000000e+00 
33 	 2.000000000000000e+00 
34 	 2.000000000000000e+00 
35 	 2.000000000000000e+00 
36 	 2.000000000000000e+00 
37 	 2.000000000000000e+00 
38 	 2.000000000000000e+00 
39 	 2.000000000000000e+00 
40 	 2.000000000000000e+00 
41 	 2.000000000000000e+00 
42 	 2.000000000000000e+00 
43 	 2.000000000000000e+00 
44 	 2.000000000000000e+00 
45 	 2.000000000000000e+00 
46 	 2.000000000000000e+00 
47 	 2.000000000000000e+00 
48 	 2.000000000000000e+00 
49 	 2.000000000000000e+00 
50 	 2.000000000000000e+00 
51 	 2.000000000000000e+00 
52 	 2.000000000000000e+00 
53 	 2.000000000000000e+00 
54 	 2.000000000000000e+00 
55 	 2.000000000000000e+00 
56 	 2.000000000000000e+00 
57 	 2.000000000000000e+00 
58 	 2.000000000000000e+00 
59 	 2.000000000000000e+00 
60 	 2.000000000000000e+00 
61 	 0.000000000000000e+00 
62 	 0.000000000000000e+00 
63 	 0.000000000000000e+00 
64 	 0.000000000000000e+00 
65 	 0.000000000000000e+00 
66 	 0.000000000000000e+00 
67 	 0.000000000000000e+00 
68 	 0.000000000000000e+00 
69 	 0.000000000000000e+00 
70 	 0.000000000000000e+00 
71 	 0.000000000000000e+00 
72 	 0.000000000000000e+00 
73 	 0.000000000000000e+00 
74 	 0.000000000000000e+00 
75 	 0.000000000000000e+00 
76 	 0.000000000000000e+00 
77 	 0.000000000000000e+00 
78 	 0.000000000000000e+00 
79 	 0.000000000000000e+00 
80 	 0.000000000000000e+00 
81 	 0.000000000000000e+00 
82 	 0.000000000000000e+00 
83 	 0.000000000000000e+00 
84 	 0.000000000000000e+00 
85 	 0.000000000000000e+00 
86 	 0.000000000000000e+00 
87 	 0.000000000000000e+00 
88 	 0.000000000000000e+00 
89 	 0.000000000000000e+00 
90 	 0.000000000000000e+00 
91 	 0.000000000000000e+00 
92 	 0.000000000000000e+00 
93 	 0.000000000000000e+00 
94 	 0.000000000000000e+00 
95 	 0.000000000000000e+00 
96 	 0.000000000000000e+00 
97 	 0.000000000000000e+00 
98 	 0.000000000000000e+00 
99 	 0.000000000000000e+00 
100 	 0.000000000000000e+00 
101 	 0.000000000000000e+00 
102 	 0.000000000000000e+00 
103 	 0.000000000000000e+00 
104 	 0.000000000000000e+00 
105 	 0.000000000000000e+00 
106 	 0.000000000000000e+00 
107 	 0.000000000000000e+00 
108 	 0.000000000000000e+00 
109 	 0.000000000000000e+00 
110 	 0.000000000000000e+00 
111 	 0.000000000000000e+00 
112 	 0.000000000000000e+00 
113 	 0.000000000000000e+00 
114 	 0.000000000000000e+00 
115 	 0.000000000000000e+00 
116 	 0.000000000000000e+00 
117 	 0.000000000000000e+00 
118 	 0.000000000000000e+00 
119 	 0.000000000000000e+00 
120 	 0.000000000000000e+00 
121 	 0.000000000000000e+00 
122 	 0.000000000000000e+00 
123 	 0.000000000000000e+00 
124 	 0.000000000000000e+00 
125 	 0.000000000000000e+00 
126 	 0.000000000000000e+00 
127 	 0.000000000000000e+00 
128 	 0.000000000000000e+00 
129 	 0.000000000000000e+00 
130 	 0.000000000000000e+00 
131 	 0.000000000000000e+00 
132 	 0.000000000000000e+00 
133 	 0.000000000000000e+00 
134 	 0.000000000000000e+00 
135 	 0.000000000000000e+00 
136 	 0.000000000000000e+00 
137 	 0.000000000000000e+00 
138 	 0.000000000000000e+00 
139 	 0.000000000000000e+00 
140 	 0.000000000000000e+00 
141 	 0.000000000000000e+00 
142 	 0.000000000000000e+00 
143 	 0.000000000000000e+00 
144 	 0.000000000000000e+00 
145 	 0.000000000000000e+00 
146 	 0.000000000000000e+00 
147 	 0.000000000000000e+00 
148 	 0.000000000000000e+00 
149 	 0.000000000000000e+00 
150 	 0.000000000000000e+00 
151 	 0.000000000000000e+00 
152 	 0.000000000000000e+00 
153 	 0.000000000000000e+00 
154 	 0.000000000000000e+00 
155 	 0.000000000000000e+00 
156 	 0.000000000000000e+00 
157 	 0.000000000000000e+00 
158 	 0.000000000000000e+00 
159 	 0.000000000000000e+00 
160 	 0.000000000000000e+00 
161 	 0.000000000000000e+00 
162 	 0.000000000000000e+00 
163 	 0.000000000000000e+00 
164 	 0.000000000000000e+00 
165 	 0.000000000000000e+00 
166 	 0.000000000000000e+00 
167 	 0.000000000000000e+00 
168 	 0.000000000000000e+00 
169 	 0.000000000000000e+00 
170 	 0.000000000000000e+00 
171 	 0.000000000000000e+00 
172 	 0.000000000000000e+00 
173 	 0.000000000000000e+00 
174 	 0.000000000000000e+00 
175 	 0.000000000000000e+00 
176 	 0.000000000000000e+00 
177 	 0.000000000000000e+00 
178 	 0.000000000000000e+00 
179 	 0.000000000000000e+00 
180 	 0.000000000000000e+00 
